c FILE /home/rafael/Documents/HappySet/MIHS/inputs/happygen/output/graph_d_regular_k2_p0.3_v50_20241127_082545.txt
c SOURCE This is a d-regular graph formed for the happy graph colouring problem.
c DESCRIPTION It was generated using the problem generator of Rhyd Lewis
c
c GRAPH STATS
c Seed                             = -1033219093
c Number of Nodes                  = 50
c Number of colours k              = 2
c Number of pre-assignments        = 15
c Degree of all vertices           = 6
c Density                          = 0.122449
c 
c The degrees of nodes 1 to 50, respectively, are as follows 
c [6, 6, 6, 6, 6, 6, 6, 6, 6, 6, 6, 6, 6, 6, 6, 6, 6, 6, 6, 6, 6, 6, 6, 6, 6, 6, 
c  6, 6, 6, 6, 6, 6, 6, 6, 6, 6, 6, 6, 6, 6, 6, 6, 6, 6, 6, 6, 6, 6, 6, 6] 
c  
p edge 50 150 2
e 1 2
e 1 22
e 1 24
e 1 28
e 1 33
e 1 44
e 2 4
e 2 5
e 2 13
e 2 16
e 2 42
e 3 13
e 3 15
e 3 17
e 3 22
e 3 36
e 3 43
e 4 7
e 4 11
e 4 15
e 4 18
e 4 23
e 5 9
e 5 13
e 5 14
e 5 34
e 5 46
e 6 12
e 6 19
e 6 27
e 6 33
e 6 38
e 6 41
e 7 8
e 7 9
e 7 13
e 7 25
e 7 26
e 8 19
e 8 27
e 8 35
e 8 43
e 8 44
e 9 21
e 9 35
e 9 38
e 9 49
e 10 16
e 10 24
e 10 25
e 10 29
e 10 31
e 10 44
e 11 17
e 11 26
e 11 29
e 11 36
e 11 48
e 12 22
e 12 31
e 12 36
e 12 45
e 12 46
e 13 32
e 13 39
e 14 17
e 14 21
e 14 28
e 14 30
e 14 38
e 15 22
e 15 23
e 15 37
e 15 38
e 16 18
e 16 21
e 16 44
e 16 48
e 17 24
e 17 35
e 17 40
e 18 20
e 18 42
e 18 44
e 18 45
e 19 22
e 19 24
e 19 40
e 19 42
e 20 21
e 20 31
e 20 32
e 20 45
e 20 47
e 21 25
e 21 28
e 22 23
e 23 31
e 23 39
e 23 41
e 24 25
e 24 49
e 25 37
e 25 41
e 26 27
e 26 33
e 26 38
e 26 48
e 27 34
e 27 43
e 27 47
e 28 30
e 28 43
e 28 45
e 29 31
e 29 37
e 29 38
e 29 50
e 30 34
e 30 37
e 30 39
e 30 43
e 31 33
e 32 36
e 32 45
e 32 46
e 32 47
e 33 46
e 33 47
e 34 39
e 34 49
e 34 50
e 35 41
e 35 44
e 35 50
e 36 43
e 36 45
e 37 41
e 37 50
e 39 40
e 39 42
e 40 46
e 40 49
e 40 50
e 41 48
e 42 46
e 42 47
e 47 48
e 48 49
e 49 50
n 1 2
n 8 1
n 10 2
n 12 2
n 15 2
n 18 1
n 20 1
n 24 2
n 27 1
n 28 2
n 32 1
n 33 2
n 39 1
n 41 1
n 50 2
